(declare-fun var0 () String)
(declare-fun var1 () String)
(declare-fun var2 () String)
(declare-fun var3 () String)
(declare-fun var4 () String)
(declare-fun var5 () String)
(declare-fun var6 () String)
(declare-fun var7 () String)
(declare-fun var8 () String)
(declare-fun var9 () String)
(declare-fun var10 () String)
(declare-fun var11 () String)
(declare-fun var12 () String)
(declare-fun var13 () String)
(declare-fun var14 () String)
(declare-fun var15 () String)
(declare-fun var16 () String)
(declare-fun var17 () String)
(declare-fun var18 () String)
(declare-fun var19 () String)
(declare-fun var20 () String)
(declare-fun var21 () String)
(declare-fun var22 () String)
(declare-fun var23 () String)
(declare-fun var24 () String)
(declare-fun var25 () String)
(declare-fun var26 () String)
(declare-fun var27 () String)
(declare-fun var28 () String)
(declare-fun var29 () String)
(declare-fun var30 () String)
(declare-fun var31 () String)
(declare-fun var32 () String)
(declare-fun var33 () String)
(declare-fun var34 () String)
(declare-fun var35 () String)
(declare-fun var36 () String)
(declare-fun var37 () String)
(declare-fun var38 () String)
(declare-fun var39 () String)
(declare-fun var40 () String)
(declare-fun var41 () String)
(declare-fun var42 () String)
(declare-fun var43 () String)
(declare-fun var44 () String)
(declare-fun var45 () String)
(declare-fun var46 () String)
(declare-fun var47 () String)
(declare-fun var48 () String)
(declare-fun var49 () String)
(declare-fun var50 () String)
(declare-fun var51 () String)
(declare-fun var52 () String)
(declare-fun var53 () String)
(declare-fun var54 () String)
(declare-fun var55 () String)
(declare-fun var56 () String)
(declare-fun var57 () String)
(declare-fun var58 () String)
(declare-fun var59 () String)
(declare-fun var60 () String)
(declare-fun var61 () String)
(declare-fun var62 () String)
(declare-fun var63 () String)
(declare-fun var64 () String)
(declare-fun var65 () String)
(declare-fun var66 () String)
(declare-fun var67 () String)
(declare-fun var68 () String)
(declare-fun var69 () String)
(declare-fun var70 () String)
(declare-fun var71 () String)
(declare-fun var72 () String)
(declare-fun var73 () String)
(declare-fun var74 () String)
(declare-fun var75 () String)
(declare-fun var76 () String)
(declare-fun var77 () String)
(declare-fun var78 () String)
(declare-fun var79 () String)
(assert (= 51 (Length var0)))
(assert (= 84 (Length var1)))
(assert (= 37 (Length var2)))
(assert (= 38 (Length var3)))
(assert (= 53 (Length var4)))
(assert (= 14 (Length var5)))
(assert (= 59 (Length var6)))
(assert (= 42 (Length var7)))
(assert (= 30 (Length var8)))
(assert (= 71 (Length var9)))
(assert (= 14 (Length var10)))
(assert (= 22 (Length var11)))
(assert (= 1 (Length var12)))
(assert (= 78 (Length var13)))
(assert (= 41 (Length var14)))
(assert (= 64 (Length var15)))
(assert (= 49 (Length var16)))
(assert (= 19 (Length var17)))
(assert (= 75 (Length var18)))
(assert (= 72 (Length var19)))
(assert (= 77 (Length var20)))
(assert (= 34 (Length var21)))
(assert (= 96 (Length var22)))
(assert (= 86 (Length var23)))
(assert (= 14 (Length var24)))
(assert (= 11 (Length var25)))
(assert (= 95 (Length var26)))
(assert (= 20 (Length var27)))
(assert (= 35 (Length var28)))
(assert (= 47 (Length var29)))
(assert (= 36 (Length var30)))
(assert (= 38 (Length var31)))
(assert (= 76 (Length var32)))
(assert (= 100 (Length var33)))
(assert (= 73 (Length var34)))
(assert (= 12 (Length var35)))
(assert (= 8 (Length var36)))
(assert (= 74 (Length var37)))
(assert (= 29 (Length var38)))
(assert (= 2 (Length var39)))
(assert (= 37 (Length var40)))
(assert (= 43 (Length var41)))
(assert (= 93 (Length var42)))
(assert (= 40 (Length var43)))
(assert (= 10 (Length var44)))
(assert (= 79 (Length var45)))
(assert (= 13 (Length var46)))
(assert (= 24 (Length var47)))
(assert (= 41 (Length var48)))
(assert (= 10 (Length var49)))
(assert (= 97 (Length var50)))
(assert (= 66 (Length var51)))
(assert (= 81 (Length var52)))
(assert (= 71 (Length var53)))
(assert (= 87 (Length var54)))
(assert (= 80 (Length var55)))
(assert (= 77 (Length var56)))
(assert (= 76 (Length var57)))
(assert (= 49 (Length var58)))
(assert (= 29 (Length var59)))
(assert (= 23 (Length var60)))
(assert (= 10 (Length var61)))
(assert (= 37 (Length var62)))
(assert (= 81 (Length var63)))
(assert (= 37 (Length var64)))
(assert (= 63 (Length var65)))
(assert (= 15 (Length var66)))
(assert (= 90 (Length var67)))
(assert (= 50 (Length var68)))
(assert (= 83 (Length var69)))
(assert (= 37 (Length var70)))
(assert (= 72 (Length var71)))
(assert (= 61 (Length var72)))
(assert (= 97 (Length var73)))
(assert (= 36 (Length var74)))
(assert (= 93 (Length var75)))
(assert (= 91 (Length var76)))
(assert (= 83 (Length var77)))
(assert (= 7 (Length var78)))
(assert (= 1 (Length var79)))
(assert (= 122 (Length (Concat var52 var48))))
(assert (= 66 (Length (Concat var17 var29))))
(assert (= 101 (Length (Concat var15 var70))))
(assert (= 120 (Length (Concat var69 var40))))
(assert (= 105 (Length (Concat var10 var76))))
(assert (= 59 (Length (Concat var36 var0))))
(assert (= 105 (Length (Concat var38 var57))))
(assert (= 60 (Length (Concat var44 var68))))
(check-sat)